decision_x1=[0,4];
decision_x2=[0,4];
decision_x3=[0,4];
decision_x4=[0,4];
decision_x5=[0,4];
decision_x6=[0,4];
decision_x7=[0,4];
decision_x8=[0,4];
decision_x9=[0,4];
decision_x10=[0,4];
random_y1=[0,4];
random_y2=[0,4];
random_y3=[0,4];
random_y4=[0,4];
random_y5=[0,4];
random_y6=[0,4];
random_y7=[0,4];
random_y8=[0,4];
random_y9=[0,4];
random_y10=[0,4];
constraint_x2_x1=[
0,0,79|
0,1,64|
0,2,46|
0,3,83|
0,4,86|
1,0,58|
1,1,21|
1,2,82|
1,3,24|
1,4,0.74|
2,0,85|
2,1,22|
2,2,75|
2,3,32|
2,4,10|
3,0,96|
3,1,64|
3,2,17|
3,3,73|
3,4,39|
4,0,1e+02|
4,1,78|
4,2,27|
4,3,35|
4,4,99|
];
constraint_x3_x2=[
0,0,47|
0,1,15|
0,2,58|
0,3,32|
0,4,19|
1,0,65|
1,1,18|
1,2,94|
1,3,25|
1,4,63|
2,0,86|
2,1,26|
2,2,16|
2,3,74|
2,4,27|
3,0,65|
3,1,45|
3,2,92|
3,3,96|
3,4,60|
4,0,67|
4,1,25|
4,2,40|
4,3,96|
4,4,19|
];
constraint_x4_x1=[
0,0,5.7|
0,1,55|
0,2,8.8|
0,3,96|
0,4,31|
1,0,69|
1,1,5.5|
1,2,54|
1,3,21|
1,4,41|
2,0,58|
2,1,83|
2,2,39|
2,3,42|
2,4,20|
3,0,57|
3,1,18|
3,2,9.9|
3,3,21|
3,4,87|
4,0,29|
4,1,24|
4,2,69|
4,3,22|
4,4,14|
];
constraint_x4_x2=[
0,0,79|
0,1,34|
0,2,33|
0,3,46|
0,4,54|
1,0,95|
1,1,46|
1,2,94|
1,3,25|
1,4,63|
2,0,78|
2,1,38|
2,2,81|
2,3,13|
2,4,31|
3,0,81|
3,1,26|
3,2,5.4|
3,3,82|
3,4,71|
4,0,20|
4,1,67|
4,2,13|
4,3,11|
4,4,21|
];
constraint_x6_x1=[
0,0,6.8|
0,1,48|
0,2,24|
0,3,60|
0,4,54|
1,0,24|
1,1,68|
1,2,4.4|
1,3,28|
1,4,1e+02|
2,0,16|
2,1,33|
2,2,98|
2,3,45|
2,4,57|
3,0,73|
3,1,39|
3,2,29|
3,3,9.6|
3,4,93|
4,0,76|
4,1,97|
4,2,4.8|
4,3,97|
4,4,60|
];
constraint_x6_x5=[
0,0,50|
0,1,71|
0,2,49|
0,3,22|
0,4,52|
1,0,54|
1,1,11|
1,2,33|
1,3,38|
1,4,43|
2,0,56|
2,1,96|
2,2,53|
2,3,66|
2,4,70|
3,0,89|
3,1,86|
3,2,57|
3,3,85|
3,4,84|
4,0,89|
4,1,49|
4,2,39|
4,3,35|
4,4,8.6|
];
constraint_x7_x1=[
0,0,94|
0,1,91|
0,2,30|
0,3,7.4|
0,4,27|
1,0,77|
1,1,75|
1,2,18|
1,3,31|
1,4,55|
2,0,19|
2,1,29|
2,2,13|
2,3,7.3|
2,4,86|
3,0,2|
3,1,86|
3,2,43|
3,3,95|
3,4,46|
4,0,38|
4,1,29|
4,2,14|
4,3,64|
4,4,49|
];
constraint_x7_x5=[
0,0,66|
0,1,51|
0,2,81|
0,3,8.7|
0,4,8|
1,0,28|
1,1,54|
1,2,98|
1,3,67|
1,4,83|
2,0,99|
2,1,3.2|
2,2,73|
2,3,84|
2,4,41|
3,0,77|
3,1,82|
3,2,80|
3,3,46|
3,4,47|
4,0,34|
4,1,76|
4,2,72|
4,3,12|
4,4,71|
];
constraint_x8_x1=[
0,0,69|
0,1,5.3|
0,2,41|
0,3,53|
0,4,13|
1,0,33|
1,1,80|
1,2,37|
1,3,5.9|
1,4,4.5|
2,0,55|
2,1,67|
2,2,6.3|
2,3,43|
2,4,59|
3,0,10|
3,1,82|
3,2,84|
3,3,93|
3,4,10|
4,0,59|
4,1,52|
4,2,82|
4,3,34|
4,4,78|
];
constraint_x8_x2=[
0,0,30|
0,1,45|
0,2,61|
0,3,59|
0,4,20|
1,0,39|
1,1,65|
1,2,4.4|
1,3,12|
1,4,86|
2,0,12|
2,1,51|
2,2,65|
2,3,23|
2,4,75|
3,0,95|
3,1,74|
3,2,45|
3,3,60|
3,4,67|
4,0,79|
4,1,20|
4,2,45|
4,3,81|
4,4,57|
];
constraint_x8_x4=[
0,0,55|
0,1,92|
0,2,21|
0,3,14|
0,4,76|
1,0,83|
1,1,82|
1,2,14|
1,3,97|
1,4,62|
2,0,82|
2,1,13|
2,2,15|
2,3,47|
2,4,93|
3,0,4|
3,1,20|
3,2,14|
3,3,8.9|
3,4,14|
4,0,36|
4,1,72|
4,2,58|
4,3,55|
4,4,98|
];
constraint_x8_x5=[
0,0,46|
0,1,5.8|
0,2,45|
0,3,65|
0,4,49|
1,0,71|
1,1,45|
1,2,66|
1,3,11|
1,4,46|
2,0,68|
2,1,46|
2,2,61|
2,3,58|
2,4,43|
3,0,94|
3,1,39|
3,2,29|
3,3,0.41|
3,4,25|
4,0,52|
4,1,84|
4,2,65|
4,3,60|
4,4,0.46|
];
constraint_x9_x1=[
0,0,74|
0,1,99|
0,2,0.059|
0,3,35|
0,4,28|
1,0,13|
1,1,72|
1,2,88|
1,3,3.9|
1,4,52|
2,0,81|
2,1,91|
2,2,30|
2,3,60|
2,4,87|
3,0,40|
3,1,65|
3,2,20|
3,3,92|
3,4,90|
4,0,99|
4,1,53|
4,2,75|
4,3,2.8|
4,4,22|
];
constraint_x9_x2=[
0,0,96|
0,1,22|
0,2,12|
0,3,74|
0,4,13|
1,0,53|
1,1,98|
1,2,61|
1,3,21|
1,4,47|
2,0,70|
2,1,79|
2,2,87|
2,3,31|
2,4,22|
3,0,77|
3,1,66|
3,2,39|
3,3,24|
3,4,65|
4,0,27|
4,1,59|
4,2,93|
4,3,21|
4,4,12|
];
constraint_x9_x3=[
0,0,68|
0,1,1.4|
0,2,33|
0,3,14|
0,4,67|
1,0,63|
1,1,93|
1,2,2|
1,3,72|
1,4,85|
2,0,45|
2,1,33|
2,2,17|
2,3,43|
2,4,1.1|
3,0,25|
3,1,60|
3,2,35|
3,3,30|
3,4,16|
4,0,80|
4,1,39|
4,2,35|
4,3,32|
4,4,34|
];
constraint_x9_x5=[
0,0,44|
0,1,77|
0,2,93|
0,3,91|
0,4,92|
1,0,60|
1,1,28|
1,2,0.75|
1,3,38|
1,4,16|
2,0,9.5|
2,1,96|
2,2,72|
2,3,13|
2,4,72|
3,0,78|
3,1,95|
3,2,16|
3,3,34|
3,4,99|
4,0,59|
4,1,90|
4,2,10|
4,3,82|
4,4,9.3|
];
constraint_x9_x7=[
0,0,96|
0,1,96|
0,2,48|
0,3,14|
0,4,81|
1,0,17|
1,1,28|
1,2,62|
1,3,54|
1,4,29|
2,0,46|
2,1,15|
2,2,72|
2,3,86|
2,4,95|
3,0,71|
3,1,59|
3,2,79|
3,3,4.7|
3,4,96|
4,0,95|
4,1,0.22|
4,2,89|
4,3,54|
4,4,10|
];
constraint_x9_x8=[
0,0,10|
0,1,23|
0,2,99|
0,3,51|
0,4,89|
1,0,8.1|
1,1,71|
1,2,27|
1,3,86|
1,4,65|
2,0,67|
2,1,17|
2,2,30|
2,3,59|
2,4,14|
3,0,88|
3,1,29|
3,2,59|
3,3,33|
3,4,9|
4,0,87|
4,1,95|
4,2,73|
4,3,79|
4,4,3.9|
];
constraint_x10_x3=[
0,0,15|
0,1,83|
0,2,36|
0,3,21|
0,4,50|
1,0,66|
1,1,75|
1,2,90|
1,3,2|
1,4,66|
2,0,87|
2,1,52|
2,2,89|
2,3,95|
2,4,46|
3,0,3.9|
3,1,92|
3,2,40|
3,3,21|
3,4,24|
4,0,12|
4,1,13|
4,2,30|
4,3,37|
4,4,28|
];
constraint_x10_x5=[
0,0,92|
0,1,90|
0,2,23|
0,3,23|
0,4,9.3|
1,0,98|
1,1,1.9|
1,2,12|
1,3,60|
1,4,72|
2,0,21|
2,1,29|
2,2,26|
2,3,61|
2,4,39|
3,0,43|
3,1,29|
3,2,56|
3,3,84|
3,4,43|
4,0,12|
4,1,95|
4,2,34|
4,3,43|
4,4,39|
];
constraint_x10_x6=[
0,0,8|
0,1,20|
0,2,93|
0,3,71|
0,4,3|
1,0,85|
1,1,71|
1,2,36|
1,3,46|
1,4,17|
2,0,37|
2,1,64|
2,2,64|
2,3,39|
2,4,57|
3,0,46|
3,1,37|
3,2,34|
3,3,39|
3,4,5.9|
4,0,93|
4,1,73|
4,2,76|
4,3,44|
4,4,30|
];
constraint_x10_x8=[
0,0,9.9|
0,1,51|
0,2,8.3|
0,3,55|
0,4,13|
1,0,89|
1,1,3.2|
1,2,7.6|
1,3,59|
1,4,82|
2,0,19|
2,1,96|
2,2,13|
2,3,39|
2,4,67|
3,0,60|
3,1,32|
3,2,98|
3,3,73|
3,4,11|
4,0,3.6|
4,1,92|
4,2,92|
4,3,78|
4,4,9.4|
];
constraint_x10_x9=[
0,0,10|
0,1,47|
0,2,83|
0,3,89|
0,4,26|
1,0,19|
1,1,57|
1,2,29|
1,3,95|
1,4,14|
2,0,28|
2,1,18|
2,2,25|
2,3,90|
2,4,6.5|
3,0,5.5|
3,1,39|
3,2,52|
3,3,16|
3,4,33|
4,0,45|
4,1,45|
4,2,61|
4,3,28|
4,4,83|
];
constraint_x1_y1=[
0,0,80|
0,1,75|
0,2,5.9|
0,3,58|
0,4,15|
1,0,41|
1,1,70|
1,2,43|
1,3,92|
1,4,72|
2,0,87|
2,1,0.26|
2,2,84|
2,3,59|
2,4,22|
3,0,73|
3,1,68|
3,2,70|
3,3,92|
3,4,3.2|
4,0,18|
4,1,0.29|
4,2,87|
4,3,23|
4,4,7|
];
constraint_x2_y2=[
0,0,24|
0,1,18|
0,2,8.7|
0,3,12|
0,4,49|
1,0,67|
1,1,18|
1,2,31|
1,3,9.4|
1,4,33|
2,0,40|
2,1,47|
2,2,15|
2,3,96|
2,4,70|
3,0,76|
3,1,9.5|
3,2,21|
3,3,32|
3,4,50|
4,0,78|
4,1,15|
4,2,66|
4,3,33|
4,4,5.4|
];
constraint_x3_y3=[
0,0,22|
0,1,81|
0,2,89|
0,3,67|
0,4,59|
1,0,19|
1,1,64|
1,2,31|
1,3,82|
1,4,40|
2,0,41|
2,1,60|
2,2,99|
2,3,51|
2,4,19|
3,0,23|
3,1,74|
3,2,9|
3,3,77|
3,4,16|
4,0,74|
4,1,5.2|
4,2,7.2|
4,3,96|
4,4,62|
];
constraint_x4_y4=[
0,0,48|
0,1,9.6|
0,2,95|
0,3,96|
0,4,61|
1,0,68|
1,1,74|
1,2,1.5|
1,3,85|
1,4,84|
2,0,47|
2,1,24|
2,2,5.1|
2,3,54|
2,4,37|
3,0,57|
3,1,21|
3,2,92|
3,3,90|
3,4,90|
4,0,73|
4,1,27|
4,2,19|
4,3,86|
4,4,38|
];
constraint_x5_y5=[
0,0,46|
0,1,43|
0,2,44|
0,3,34|
0,4,71|
1,0,76|
1,1,15|
1,2,77|
1,3,25|
1,4,80|
2,0,92|
2,1,71|
2,2,12|
2,3,86|
2,4,23|
3,0,11|
3,1,2.3|
3,2,89|
3,3,10|
3,4,89|
4,0,78|
4,1,1.4|
4,2,8.7|
4,3,13|
4,4,61|
];
constraint_x6_y6=[
0,0,93|
0,1,9.8|
0,2,14|
0,3,6.3|
0,4,6.9|
1,0,68|
1,1,9.2|
1,2,44|
1,3,0.44|
1,4,7.3|
2,0,72|
2,1,2.6|
2,2,5.7|
2,3,18|
2,4,54|
3,0,52|
3,1,96|
3,2,44|
3,3,67|
3,4,77|
4,0,66|
4,1,79|
4,2,47|
4,3,32|
4,4,68|
];
constraint_x7_y7=[
0,0,39|
0,1,77|
0,2,69|
0,3,15|
0,4,6|
1,0,16|
1,1,92|
1,2,6.2|
1,3,62|
1,4,34|
2,0,45|
2,1,13|
2,2,86|
2,3,79|
2,4,8.7|
3,0,44|
3,1,54|
3,2,47|
3,3,87|
3,4,63|
4,0,79|
4,1,80|
4,2,91|
4,3,33|
4,4,94|
];
constraint_x8_y8=[
0,0,26|
0,1,71|
0,2,55|
0,3,95|
0,4,94|
1,0,19|
1,1,13|
1,2,85|
1,3,13|
1,4,54|
2,0,25|
2,1,33|
2,2,20|
2,3,90|
2,4,52|
3,0,50|
3,1,89|
3,2,65|
3,3,25|
3,4,80|
4,0,58|
4,1,18|
4,2,47|
4,3,92|
4,4,45|
];
constraint_x9_y9=[
0,0,1e+02|
0,1,4|
0,2,68|
0,3,59|
0,4,97|
1,0,72|
1,1,34|
1,2,43|
1,3,95|
1,4,96|
2,0,99|
2,1,80|
2,2,28|
2,3,62|
2,4,44|
3,0,68|
3,1,44|
3,2,56|
3,3,69|
3,4,81|
4,0,71|
4,1,73|
4,2,55|
4,3,29|
4,4,79|
];
constraint_x10_y10=[
0,0,84|
0,1,90|
0,2,53|
0,3,47|
0,4,95|
1,0,33|
1,1,67|
1,2,6.7|
1,3,31|
1,4,78|
2,0,54|
2,1,28|
2,2,63|
2,3,86|
2,4,53|
3,0,70|
3,1,57|
3,2,85|
3,3,91|
3,4,23|
4,0,32|
4,1,40|
4,2,71|
4,3,29|
4,4,32|
];
initial_distribution_y1=[0.068,0.15,0.16,0.19,0.42];
initial_distribution_y2=[0.11,0.23,0.35,0.13,0.17];
initial_distribution_y3=[0.019,0.18,0.28,0.13,0.4];
initial_distribution_y4=[0.29,0.11,0.42,0.0075,0.18];
initial_distribution_y5=[0.15,0.24,0.22,0.25,0.14];
initial_distribution_y6=[0.12,0.27,0.27,0.25,0.098];
initial_distribution_y7=[0.48,0.25,0.037,0.19,0.04];
initial_distribution_y8=[0.3,0.24,0.34,0.012,0.12];
initial_distribution_y9=[0.23,0.21,0.19,0.11,0.26];
initial_distribution_y10=[0.22,0.31,0.31,0.049,0.11];
transition_y1=[
0.24,0.33,0.18,0.053,0.21|
0.41,0.02,0.11,0.1,0.37|
0.16,0.17,0.16,0.29,0.22|
0.26,0.082,0.34,0.21,0.11|
0.096,0.061,0.24,0.26,0.34|
];
transition_y2=[
0.042,0.2,0.055,0.3,0.4|
0.24,0.22,0.17,0.15,0.22|
0.14,0.28,0.23,0.21,0.15|
0.29,0.27,0.049,0.32,0.067|
0.23,0.051,0.34,0.15,0.23|
];
transition_y3=[
0.1,0.49,0.15,0.074,0.18|
0.22,0.11,0.27,0.32,0.079|
0.2,0.2,0.17,0.19,0.24|
0.31,0.14,0.19,0.12,0.23|
0.27,0.29,0.045,0.34,0.053|
];
transition_y4=[
0.071,0.018,0.13,0.48,0.3|
0.1,0.18,0.4,0.048,0.27|
0.22,0.16,0.32,0.073,0.23|
0.059,0.23,0.058,0.6,0.057|
0.23,0.27,0.061,0.2,0.24|
];
transition_y5=[
0.23,0.14,0.36,0.21,0.061|
0.12,0.14,0.21,0.42,0.11|
0.39,0.05,0.1,0.14,0.32|
0.34,0.026,0.17,0.2,0.26|
0.31,0.016,0.26,0.12,0.29|
];
transition_y6=[
0.26,0.2,0.044,0.2,0.3|
0.16,0.18,0.13,0.32,0.21|
0.25,0.2,0.24,0.062,0.24|
0.0097,0.23,0.24,0.21,0.31|
0.29,0.25,0.32,0.035,0.11|
];
transition_y7=[
0.24,0.23,0.21,0.034,0.28|
0.03,0.23,0.088,0.4,0.26|
0.29,0.091,0.49,0.073,0.055|
0.27,0.2,0.12,0.19,0.23|
0.066,0.079,0.33,0.21,0.31|
];
transition_y8=[
0.13,0.42,0.17,0.23,0.049|
0.082,0.042,0.38,0.41,0.085|
0.082,0.083,0.16,0.51,0.17|
0.082,0.036,0.35,0.3,0.23|
0.27,0.25,0.12,0.32,0.046|
];
transition_y9=[
0.4,0.37,0.062,0.073,0.1|
0.21,0.33,0.03,0.016,0.42|
0.19,0.16,0.27,0.29,0.094|
0.35,0.25,0.15,0.0093,0.25|
0.36,0.35,0.077,0.2,0.0056|
];
transition_y10=[
0.22,0.17,0.17,0.2,0.25|
0.062,0.18,0.23,0.1,0.43|
0.3,0.19,0.063,0.21,0.24|
0.19,0.28,0.019,0.26,0.25|
0.42,0.025,0.092,0.3,0.17|
];
